Problem:    
Rows:       105
Columns:    45 (34 integer, 34 binary)
Non-zeros:  302
Status:     INTEGER OPTIMAL
Objective:  value = 125.01423 (MINimum)

   No.   Row name        Activity     Lower bound   Upper bound
------ ------------    ------------- ------------- -------------
     1 r.5                   125.014             0               
     2 r.6                   54.1772      -276.529               
     3 r.7                   625.014             0               
     4 r.8                  -374.986      -425.595               
     5 r.9                   625.014             0               
     6 r.10                 -374.986      -477.602               
     7 r.11                  125.014             0               
     8 r.12                  6.86473      -488.292               
     9 r.13                  625.014             0               
    10 r.14                 -397.384      -451.561               
    11 r.15                  125.014             0               
    12 r.16                  -359.37      -484.385               
    13 r.17                  125.014             0               
    14 r.18                 -169.294      -366.332               
    15 r.19                  625.014             0               
    16 r.20                 -449.391      -456.255               
    17 r.21                  625.014             0               
    18 r.22                  -498.79       -498.79               
    19 r.23                  125.014             0               
    20 r.24                  1.20974      -498.252               
    21 r.25                        1             1             = 
    22 r.26                        1             1             = 
    23 r.27                        1             1             = 
    24 r.28                        1             1             = 
    25 r.29                        1             1             = 
    26 r.30                  70.8371       22.3978               
    27 r.31                 -70.8371      -276.529               
    28 r.32                   381.85       11.7077               
    29 r.33                  -381.85      -425.595               
    30 r.34                  48.4393       48.4393               
    31 r.35                 -48.4393      -276.529               
    32 r.36                  15.6154       15.6154               
    33 r.37                 -15.6154      -425.595               
    34 r.38                  276.529       133.668               
    35 r.39                 -276.529      -276.529               
    36 r.40                  425.595       43.7447               
    37 r.41                 -425.595      -425.595               
    38 r.42                  52.9674      -272.888               
    39 r.43                 -376.196       -419.94               
    40 r.44                  52.9674      -272.888               
    41 r.45                 -376.196       -419.94               
    42 r.46                  429.163       223.471               
    43 r.47                 -429.163      -477.602               
    44 r.48                   118.15       74.4048               
    45 r.49                  -118.15      -488.292               
    46 r.50                  477.602       48.4393               
    47 r.51                 -477.602      -477.602               
    48 r.52                  133.765       15.6154               
    49 r.53                 -133.765      -488.292               
    50 r.54                  205.691       133.668               
    51 r.55                 -205.691      -477.602               
    52 r.56                  43.7447       43.7447               
    53 r.57                 -43.7447      -488.292               
    54 r.58                 -376.196      -473.961               
    55 r.59                  5.65499      -482.637               
    56 r.60                 -376.196      -473.961               
    57 r.61                  5.65499      -482.637               
    58 r.62                  451.561       223.471               
    59 r.63                 -451.561      -451.561               
    60 r.64                  484.385       74.4048               
    61 r.65                 -484.385      -484.385               
    62 r.66                  22.3978       22.3978               
    63 r.67                 -22.3978      -451.561               
    64 r.68                  366.235       11.7077               
    65 r.69                 -366.235      -484.385               
    66 r.70                  228.089       133.668               
    67 r.71                 -228.089      -451.561               
    68 r.72                   409.98       43.7447               
    69 r.73                  -409.98      -484.385               
    70 r.74                 -398.593       -447.92               
    71 r.75                  -360.58       -478.73               
    72 r.76                 -398.593       -447.92               
    73 r.77                  -360.58       -478.73               
    74 r.78                  223.471       223.471               
    75 r.79                 -223.471      -366.332               
    76 r.80                  74.4048       74.4048               
    77 r.81                 -74.4048      -456.255               
    78 r.82                  294.309       22.3978               
    79 r.83                 -294.309      -366.332               
    80 r.84                  456.255       11.7077               
    81 r.85                 -456.255      -456.255               
    82 r.86                  271.911       48.4393               
    83 r.87                 -271.911      -366.332               
    84 r.88                  90.0202       15.6154               
    85 r.89                 -90.0202      -456.255               
    86 r.90                 -170.504      -362.691               
    87 r.91                   -450.6        -450.6               
    88 r.92                 -170.504      -362.691               
    89 r.93                   -450.6        -450.6               
    90 r.94                  52.9674      -272.888               
    91 r.95                 -376.196       -419.94               
    92 r.96                  52.9674      -272.888               
    93 r.97                 -376.196       -419.94               
    94 r.98                 -376.196      -473.961               
    95 r.99                  5.65499      -482.637               
    96 r.100                -376.196      -473.961               
    97 r.101                 5.65499      -482.637               
    98 r.102                -398.593       -447.92               
    99 r.103                 -360.58       -478.73               
   100 r.104                -398.593       -447.92               
   101 r.105                 -360.58       -478.73               
   102 r.106                -170.504      -362.691               
   103 r.107                  -450.6        -450.6               
   104 r.108                -170.504      -362.691               
   105 r.109                  -450.6        -450.6               

   No. Column name       Activity     Lower bound   Upper bound
------ ------------    ------------- ------------- -------------
     1 tt                    125.014             0               
     2 s_1_1        *              0             0             1 
     3 t_1_1                 70.8371             0               
     4 s_2_1        *              1             0             1 
     5 t_2_1                       0             0               
     6 s_1_2        *              1             0             1 
     7 t_1_2                       0             0               
     8 s_2_2        *              0             0             1 
     9 t_2_2                  118.15             0               
    10 s_1_3        *              1             0             1 
    11 t_1_3                 22.3978             0               
    12 s_2_3        *              0             0             1 
    13 t_2_3                 484.385             0               
    14 s_1_4        *              0             0             1 
    15 t_1_4                 294.309             0               
    16 s_2_4        *              1             0             1 
    17 t_2_4                 74.4048             0               
    18 s_1_5        *              1             0             1 
    19 t_1_5                 123.804             0               
    20 s_2_5        *              0             0             1 
    21 t_2_5                 123.804             0               
    22 u_1_1_2      *              0             0             1 
    23 u_2_1_2      *              1             0             1 
    24 u_1_1_3      *              0             0             1 
    25 u_2_1_3      *              1             0             1 
    26 u_1_1_4      *              1             0             1 
    27 u_2_1_4      *              1             0             1 
    28 u_1_2_1      *              1             0             1 
    29 u_2_2_1      *              0             0             1 
    30 u_1_2_3      *              1             0             1 
    31 u_2_2_3      *              1             0             1 
    32 u_1_2_4      *              1             0             1 
    33 u_2_2_4      *              0             0             1 
    34 u_1_3_1      *              1             0             1 
    35 u_2_3_1      *              0             0             1 
    36 u_1_3_2      *              0             0             1 
    37 u_2_3_2      *              0             0             1 
    38 u_1_3_4      *              1             0             1 
    39 u_2_3_4      *              0             0             1 
    40 u_1_4_1      *              0             0             1 
    41 u_2_4_1      *              0             0             1 
    42 u_1_4_2      *              0             0             1 
    43 u_2_4_2      *              1             0             1 
    44 u_1_4_3      *              0             0             1 
    45 u_2_4_3      *              1             0             1 

Integer feasibility conditions:

KKT.PE: max.abs.err = 0.00e+00 on row 0
        max.rel.err = 0.00e+00 on row 0
        High quality

KKT.PB: max.abs.err = 5.68e-14 on row 18
        max.rel.err = 1.14e-16 on row 18
        High quality

End of output
